T = 150;
V = 10;
Q = 15;
L = 8;
C = 3;
P = 10;
time = [|  0, 16, 14,  0, 23, 16, 23, 17, 16, 14,  5, 23, 19, 16, 14, 17, 16, 23, 17, 17,  4,  4,  4,  4,  4,  4,  4,  4,  4,  4,  4,  4,  4,  4,  4,  4,  4,  4,  4,  4,
        | 16,  0, 25, 16, 33,  0, 33, 15,  0, 25, 19, 33, 18,  0, 25, 15,  0, 33, 15, 15, 13, 13, 13, 13, 13, 13, 13, 13, 13, 13, 13, 13, 13, 13, 13, 13, 13, 13, 13, 13,
        | 14, 25,  0, 14, 31, 25, 31, 30, 25,  0, 16, 31, 17, 25,  0, 30, 25, 31, 30, 30, 17, 17, 17, 17, 17, 17, 17, 17, 17, 17, 17, 17, 17, 17, 17, 17, 17, 17, 17, 17,
        |  0, 16, 14,  0, 23, 16, 23, 17, 16, 14,  5, 23, 19, 16, 14, 17, 16, 23, 17, 17,  4,  4,  4,  4,  4,  4,  4,  4,  4,  4,  4,  4,  4,  4,  4,  4,  4,  4,  4,  4,
        | 23, 33, 31, 23,  0, 33,  0, 21, 33, 31, 18,  0, 41, 33, 31, 21, 33,  0, 21, 21, 22, 22, 22, 22, 22, 22, 22, 22, 22, 22, 22, 22, 22, 22, 22, 22, 22, 22, 22, 22,
        | 16,  0, 25, 16, 33,  0, 33, 15,  0, 25, 19, 33, 18,  0, 25, 15,  0, 33, 15, 15, 13, 13, 13, 13, 13, 13, 13, 13, 13, 13, 13, 13, 13, 13, 13, 13, 13, 13, 13, 13,
        | 23, 33, 31, 23,  0, 33,  0, 21, 33, 31, 18,  0, 41, 33, 31, 21, 33,  0, 21, 21, 22, 22, 22, 22, 22, 22, 22, 22, 22, 22, 22, 22, 22, 22, 22, 22, 22, 22, 22, 22,
        | 17, 15, 30, 17, 21, 15, 21,  0, 15, 30, 16, 21, 31, 15, 30,  0, 15, 21,  0,  0, 14, 14, 14, 14, 14, 14, 14, 14, 14, 14, 14, 14, 14, 14, 14, 14, 14, 14, 14, 14,
        | 16,  0, 25, 16, 33,  0, 33, 15,  0, 25, 19, 33, 18,  0, 25, 15,  0, 33, 15, 15, 13, 13, 13, 13, 13, 13, 13, 13, 13, 13, 13, 13, 13, 13, 13, 13, 13, 13, 13, 13,
        | 14, 25,  0, 14, 31, 25, 31, 30, 25,  0, 16, 31, 17, 25,  0, 30, 25, 31, 30, 30, 17, 17, 17, 17, 17, 17, 17, 17, 17, 17, 17, 17, 17, 17, 17, 17, 17, 17, 17, 17,
        |  5, 19, 16,  5, 18, 19, 18, 16, 19, 16,  0, 18, 23, 19, 16, 16, 19, 18, 16, 16,  7,  7,  7,  7,  7,  7,  7,  7,  7,  7,  7,  7,  7,  7,  7,  7,  7,  7,  7,  7,
        | 23, 33, 31, 23,  0, 33,  0, 21, 33, 31, 18,  0, 41, 33, 31, 21, 33,  0, 21, 21, 22, 22, 22, 22, 22, 22, 22, 22, 22, 22, 22, 22, 22, 22, 22, 22, 22, 22, 22, 22,
        | 19, 18, 17, 19, 41, 18, 41, 31, 18, 17, 23, 41,  0, 18, 17, 31, 18, 41, 31, 31, 20, 20, 20, 20, 20, 20, 20, 20, 20, 20, 20, 20, 20, 20, 20, 20, 20, 20, 20, 20,
        | 16,  0, 25, 16, 33,  0, 33, 15,  0, 25, 19, 33, 18,  0, 25, 15,  0, 33, 15, 15, 13, 13, 13, 13, 13, 13, 13, 13, 13, 13, 13, 13, 13, 13, 13, 13, 13, 13, 13, 13,
        | 14, 25,  0, 14, 31, 25, 31, 30, 25,  0, 16, 31, 17, 25,  0, 30, 25, 31, 30, 30, 17, 17, 17, 17, 17, 17, 17, 17, 17, 17, 17, 17, 17, 17, 17, 17, 17, 17, 17, 17,
        | 17, 15, 30, 17, 21, 15, 21,  0, 15, 30, 16, 21, 31, 15, 30,  0, 15, 21,  0,  0, 14, 14, 14, 14, 14, 14, 14, 14, 14, 14, 14, 14, 14, 14, 14, 14, 14, 14, 14, 14,
        | 16,  0, 25, 16, 33,  0, 33, 15,  0, 25, 19, 33, 18,  0, 25, 15,  0, 33, 15, 15, 13, 13, 13, 13, 13, 13, 13, 13, 13, 13, 13, 13, 13, 13, 13, 13, 13, 13, 13, 13,
        | 23, 33, 31, 23,  0, 33,  0, 21, 33, 31, 18,  0, 41, 33, 31, 21, 33,  0, 21, 21, 22, 22, 22, 22, 22, 22, 22, 22, 22, 22, 22, 22, 22, 22, 22, 22, 22, 22, 22, 22,
        | 17, 15, 30, 17, 21, 15, 21,  0, 15, 30, 16, 21, 31, 15, 30,  0, 15, 21,  0,  0, 14, 14, 14, 14, 14, 14, 14, 14, 14, 14, 14, 14, 14, 14, 14, 14, 14, 14, 14, 14,
        | 17, 15, 30, 17, 21, 15, 21,  0, 15, 30, 16, 21, 31, 15, 30,  0, 15, 21,  0,  0, 14, 14, 14, 14, 14, 14, 14, 14, 14, 14, 14, 14, 14, 14, 14, 14, 14, 14, 14, 14,
        |  4, 13, 17,  4, 22, 13, 22, 14, 13, 17,  7, 22, 20, 13, 17, 14, 13, 22, 14, 14,  0,  0,  0,  0,  0,  0,  0,  0,  0,  0,  0,  0,  0,  0,  0,  0,  0,  0,  0,  0,
        |  4, 13, 17,  4, 22, 13, 22, 14, 13, 17,  7, 22, 20, 13, 17, 14, 13, 22, 14, 14,  0,  0,  0,  0,  0,  0,  0,  0,  0,  0,  0,  0,  0,  0,  0,  0,  0,  0,  0,  0,
        |  4, 13, 17,  4, 22, 13, 22, 14, 13, 17,  7, 22, 20, 13, 17, 14, 13, 22, 14, 14,  0,  0,  0,  0,  0,  0,  0,  0,  0,  0,  0,  0,  0,  0,  0,  0,  0,  0,  0,  0,
        |  4, 13, 17,  4, 22, 13, 22, 14, 13, 17,  7, 22, 20, 13, 17, 14, 13, 22, 14, 14,  0,  0,  0,  0,  0,  0,  0,  0,  0,  0,  0,  0,  0,  0,  0,  0,  0,  0,  0,  0,
        |  4, 13, 17,  4, 22, 13, 22, 14, 13, 17,  7, 22, 20, 13, 17, 14, 13, 22, 14, 14,  0,  0,  0,  0,  0,  0,  0,  0,  0,  0,  0,  0,  0,  0,  0,  0,  0,  0,  0,  0,
        |  4, 13, 17,  4, 22, 13, 22, 14, 13, 17,  7, 22, 20, 13, 17, 14, 13, 22, 14, 14,  0,  0,  0,  0,  0,  0,  0,  0,  0,  0,  0,  0,  0,  0,  0,  0,  0,  0,  0,  0,
        |  4, 13, 17,  4, 22, 13, 22, 14, 13, 17,  7, 22, 20, 13, 17, 14, 13, 22, 14, 14,  0,  0,  0,  0,  0,  0,  0,  0,  0,  0,  0,  0,  0,  0,  0,  0,  0,  0,  0,  0,
        |  4, 13, 17,  4, 22, 13, 22, 14, 13, 17,  7, 22, 20, 13, 17, 14, 13, 22, 14, 14,  0,  0,  0,  0,  0,  0,  0,  0,  0,  0,  0,  0,  0,  0,  0,  0,  0,  0,  0,  0,
        |  4, 13, 17,  4, 22, 13, 22, 14, 13, 17,  7, 22, 20, 13, 17, 14, 13, 22, 14, 14,  0,  0,  0,  0,  0,  0,  0,  0,  0,  0,  0,  0,  0,  0,  0,  0,  0,  0,  0,  0,
        |  4, 13, 17,  4, 22, 13, 22, 14, 13, 17,  7, 22, 20, 13, 17, 14, 13, 22, 14, 14,  0,  0,  0,  0,  0,  0,  0,  0,  0,  0,  0,  0,  0,  0,  0,  0,  0,  0,  0,  0,
        |  4, 13, 17,  4, 22, 13, 22, 14, 13, 17,  7, 22, 20, 13, 17, 14, 13, 22, 14, 14,  0,  0,  0,  0,  0,  0,  0,  0,  0,  0,  0,  0,  0,  0,  0,  0,  0,  0,  0,  0,
        |  4, 13, 17,  4, 22, 13, 22, 14, 13, 17,  7, 22, 20, 13, 17, 14, 13, 22, 14, 14,  0,  0,  0,  0,  0,  0,  0,  0,  0,  0,  0,  0,  0,  0,  0,  0,  0,  0,  0,  0,
        |  4, 13, 17,  4, 22, 13, 22, 14, 13, 17,  7, 22, 20, 13, 17, 14, 13, 22, 14, 14,  0,  0,  0,  0,  0,  0,  0,  0,  0,  0,  0,  0,  0,  0,  0,  0,  0,  0,  0,  0,
        |  4, 13, 17,  4, 22, 13, 22, 14, 13, 17,  7, 22, 20, 13, 17, 14, 13, 22, 14, 14,  0,  0,  0,  0,  0,  0,  0,  0,  0,  0,  0,  0,  0,  0,  0,  0,  0,  0,  0,  0,
        |  4, 13, 17,  4, 22, 13, 22, 14, 13, 17,  7, 22, 20, 13, 17, 14, 13, 22, 14, 14,  0,  0,  0,  0,  0,  0,  0,  0,  0,  0,  0,  0,  0,  0,  0,  0,  0,  0,  0,  0,
        |  4, 13, 17,  4, 22, 13, 22, 14, 13, 17,  7, 22, 20, 13, 17, 14, 13, 22, 14, 14,  0,  0,  0,  0,  0,  0,  0,  0,  0,  0,  0,  0,  0,  0,  0,  0,  0,  0,  0,  0,
        |  4, 13, 17,  4, 22, 13, 22, 14, 13, 17,  7, 22, 20, 13, 17, 14, 13, 22, 14, 14,  0,  0,  0,  0,  0,  0,  0,  0,  0,  0,  0,  0,  0,  0,  0,  0,  0,  0,  0,  0,
        |  4, 13, 17,  4, 22, 13, 22, 14, 13, 17,  7, 22, 20, 13, 17, 14, 13, 22, 14, 14,  0,  0,  0,  0,  0,  0,  0,  0,  0,  0,  0,  0,  0,  0,  0,  0,  0,  0,  0,  0,
        |  4, 13, 17,  4, 22, 13, 22, 14, 13, 17,  7, 22, 20, 13, 17, 14, 13, 22, 14, 14,  0,  0,  0,  0,  0,  0,  0,  0,  0,  0,  0,  0,  0,  0,  0,  0,  0,  0,  0,  0,
        |  4, 13, 17,  4, 22, 13, 22, 14, 13, 17,  7, 22, 20, 13, 17, 14, 13, 22, 14, 14,  0,  0,  0,  0,  0,  0,  0,  0,  0,  0,  0,  0,  0,  0,  0,  0,  0,  0,  0,  0|];
l =     [  3,  5,  6,  3,  8,  5,  8,  4,  5,  6,  2,  8,  1,  5,  6,  4,  5,  8,  4,  4];
a =     [  4, 13, 30, 25, 22, 32, 22, 14, 14, 25, 28, 60, 61, 54, 68, 61, 66, 45, 48, 65];
b =     [ 33, 44, 54, 41, 38, 59, 57, 34, 32, 41, 79,107,108,121,108,104,108,113,114,114];
s =     [ 19, 14, 14, 13, 15, 14, 11, 10, 19, 10, 19, 14, 14, 13, 15, 14, 11, 10, 19, 10];
q =     [  4,  3,  3,  2,  4,  1,  2,  2,  1,  2, -4, -3, -3, -2, -4, -1, -2, -2, -1, -2];
